100
1000
168
168
168
167
167
167
166
166
165
165
165
165
164
164
164
164
164
163
163
163
162
161
160
159
159
159
157
157
155
154
154
154
154
153
153
153
151
150
149
149
149
148
148
147
147
147
147
146
145
145
145
144
143
143
142
142
142
141
139
138
137
136
135
135
133
133
133
133
132
131
130
130
129
129
129
128
128
128
127
127
126
125
125
124
124
122
122
121
121
121
120
120
119
119
119
118
118
118
115
115
